(set-info :status unknown)
(declare-fun %B () (_ BitVec 47))
(declare-fun %A () (_ BitVec 47))
(declare-fun %X () (_ BitVec 47))
(declare-fun u_%Y () (_ BitVec 8))
(declare-fun |ana_isPowerOf2(%A)| () (_ BitVec 1))
(assert
 (let ((?x15472 (bvshl %A %B)))
 (let ((?x22750 (bvsdiv %X ?x15472)))
 (let (($x3327 (= |ana_isPowerOf2(%A)| (_ bv1 1))))
 (let (($x12203 (bvult %B (_ bv47 47))))
 (let (($x2836 (=> $x3327 (and (and (distinct %A (_ bv0 47)) true) (= (bvand %A (bvsub %A (_ bv1 47))) (_ bv0 47))))))
 (let (($x7808 (or (and (distinct %X (_ bv70368744177664 47)) true) (and (distinct ?x15472 (_ bv140737488355327 47)) true))))
 (let (($x4340 (and (distinct ?x15472 (_ bv0 47)) true)))
 (and $x12203 $x4340 $x7808 $x2836 $x12203 $x3327 (= u_%Y (_ bv1 8)) (and (distinct ?x22750 ?x22750) true))))))))))
(check-sat)
